p knf 100 286
-1 -11 -2 -12 0
-1 -21 -3 -23 0
-1 -31 -4 -34 0
-1 -41 -5 -45 0
-1 -51 -6 -56 0
-1 -61 -7 -67 0
-1 -71 -8 -78 0
-1 -81 -9 -89 0
-1 -91 -10 -100 0
-2 -12 -3 -13 0
-2 -22 -4 -24 0
-2 -32 -5 -35 0
-2 -42 -6 -46 0
-2 -52 -7 -57 0
-2 -62 -8 -68 0
-2 -72 -9 -79 0
-2 -82 -10 -90 0
-3 -13 -4 -14 0
-3 -23 -5 -25 0
-3 -33 -6 -36 0
-3 -43 -7 -47 0
-3 -53 -8 -58 0
-3 -63 -9 -69 0
-3 -73 -10 -80 0
-4 -14 -5 -15 0
-4 -24 -6 -26 0
-4 -34 -7 -37 0
-4 -44 -8 -48 0
-4 -54 -9 -59 0
-4 -64 -10 -70 0
-5 -15 -6 -16 0
-5 -25 -7 -27 0
-5 -35 -8 -38 0
-5 -45 -9 -49 0
-5 -55 -10 -60 0
-6 -16 -7 -17 0
-6 -26 -8 -28 0
-6 -36 -9 -39 0
-6 -46 -10 -50 0
-7 -17 -8 -18 0
-7 -27 -9 -29 0
-7 -37 -10 -40 0
-8 -18 -9 -19 0
-8 -28 -10 -30 0
-9 -19 -10 -20 0
-11 -21 -12 -22 0
-11 -31 -13 -33 0
-11 -41 -14 -44 0
-11 -51 -15 -55 0
-11 -61 -16 -66 0
-11 -71 -17 -77 0
-11 -81 -18 -88 0
-11 -91 -19 -99 0
-12 -22 -13 -23 0
-12 -32 -14 -34 0
-12 -42 -15 -45 0
-12 -52 -16 -56 0
-12 -62 -17 -67 0
-12 -72 -18 -78 0
-12 -82 -19 -89 0
-12 -92 -20 -100 0
-13 -23 -14 -24 0
-13 -33 -15 -35 0
-13 -43 -16 -46 0
-13 -53 -17 -57 0
-13 -63 -18 -68 0
-13 -73 -19 -79 0
-13 -83 -20 -90 0
-14 -24 -15 -25 0
-14 -34 -16 -36 0
-14 -44 -17 -47 0
-14 -54 -18 -58 0
-14 -64 -19 -69 0
-14 -74 -20 -80 0
-15 -25 -16 -26 0
-15 -35 -17 -37 0
-15 -45 -18 -48 0
-15 -55 -19 -59 0
-15 -65 -20 -70 0
-16 -26 -17 -27 0
-16 -36 -18 -38 0
-16 -46 -19 -49 0
-16 -56 -20 -60 0
-17 -27 -18 -28 0
-17 -37 -19 -39 0
-17 -47 -20 -50 0
-18 -28 -19 -29 0
-18 -38 -20 -40 0
-19 -29 -20 -30 0
-21 -31 -22 -32 0
-21 -41 -23 -43 0
-21 -51 -24 -54 0
-21 -61 -25 -65 0
-21 -71 -26 -76 0
-21 -81 -27 -87 0
-21 -91 -28 -98 0
-22 -32 -23 -33 0
-22 -42 -24 -44 0
-22 -52 -25 -55 0
-22 -62 -26 -66 0
-22 -72 -27 -77 0
-22 -82 -28 -88 0
-22 -92 -29 -99 0
-23 -33 -24 -34 0
-23 -43 -25 -45 0
-23 -53 -26 -56 0
-23 -63 -27 -67 0
-23 -73 -28 -78 0
-23 -83 -29 -89 0
-23 -93 -30 -100 0
-24 -34 -25 -35 0
-24 -44 -26 -46 0
-24 -54 -27 -57 0
-24 -64 -28 -68 0
-24 -74 -29 -79 0
-24 -84 -30 -90 0
-25 -35 -26 -36 0
-25 -45 -27 -47 0
-25 -55 -28 -58 0
-25 -65 -29 -69 0
-25 -75 -30 -80 0
-26 -36 -27 -37 0
-26 -46 -28 -48 0
-26 -56 -29 -59 0
-26 -66 -30 -70 0
-27 -37 -28 -38 0
-27 -47 -29 -49 0
-27 -57 -30 -60 0
-28 -38 -29 -39 0
-28 -48 -30 -50 0
-29 -39 -30 -40 0
-31 -41 -32 -42 0
-31 -51 -33 -53 0
-31 -61 -34 -64 0
-31 -71 -35 -75 0
-31 -81 -36 -86 0
-31 -91 -37 -97 0
-32 -42 -33 -43 0
-32 -52 -34 -54 0
-32 -62 -35 -65 0
-32 -72 -36 -76 0
-32 -82 -37 -87 0
-32 -92 -38 -98 0
-33 -43 -34 -44 0
-33 -53 -35 -55 0
-33 -63 -36 -66 0
-33 -73 -37 -77 0
-33 -83 -38 -88 0
-33 -93 -39 -99 0
-34 -44 -35 -45 0
-34 -54 -36 -56 0
-34 -64 -37 -67 0
-34 -74 -38 -78 0
-34 -84 -39 -89 0
-34 -94 -40 -100 0
-35 -45 -36 -46 0
-35 -55 -37 -57 0
-35 -65 -38 -68 0
-35 -75 -39 -79 0
-35 -85 -40 -90 0
-36 -46 -37 -47 0
-36 -56 -38 -58 0
-36 -66 -39 -69 0
-36 -76 -40 -80 0
-37 -47 -38 -48 0
-37 -57 -39 -59 0
-37 -67 -40 -70 0
-38 -48 -39 -49 0
-38 -58 -40 -60 0
-39 -49 -40 -50 0
-41 -51 -42 -52 0
-41 -61 -43 -63 0
-41 -71 -44 -74 0
-41 -81 -45 -85 0
-41 -91 -46 -96 0
-42 -52 -43 -53 0
-42 -62 -44 -64 0
-42 -72 -45 -75 0
-42 -82 -46 -86 0
-42 -92 -47 -97 0
-43 -53 -44 -54 0
-43 -63 -45 -65 0
-43 -73 -46 -76 0
-43 -83 -47 -87 0
-43 -93 -48 -98 0
-44 -54 -45 -55 0
-44 -64 -46 -66 0
-44 -74 -47 -77 0
-44 -84 -48 -88 0
-44 -94 -49 -99 0
-45 -55 -46 -56 0
-45 -65 -47 -67 0
-45 -75 -48 -78 0
-45 -85 -49 -89 0
-45 -95 -50 -100 0
-46 -56 -47 -57 0
-46 -66 -48 -68 0
-46 -76 -49 -79 0
-46 -86 -50 -90 0
-47 -57 -48 -58 0
-47 -67 -49 -69 0
-47 -77 -50 -80 0
-48 -58 -49 -59 0
-48 -68 -50 -70 0
-49 -59 -50 -60 0
-51 -61 -52 -62 0
-51 -71 -53 -73 0
-51 -81 -54 -84 0
-51 -91 -55 -95 0
-52 -62 -53 -63 0
-52 -72 -54 -74 0
-52 -82 -55 -85 0
-52 -92 -56 -96 0
-53 -63 -54 -64 0
-53 -73 -55 -75 0
-53 -83 -56 -86 0
-53 -93 -57 -97 0
-54 -64 -55 -65 0
-54 -74 -56 -76 0
-54 -84 -57 -87 0
-54 -94 -58 -98 0
-55 -65 -56 -66 0
-55 -75 -57 -77 0
-55 -85 -58 -88 0
-55 -95 -59 -99 0
-56 -66 -57 -67 0
-56 -76 -58 -78 0
-56 -86 -59 -89 0
-56 -96 -60 -100 0
-57 -67 -58 -68 0
-57 -77 -59 -79 0
-57 -87 -60 -90 0
-58 -68 -59 -69 0
-58 -78 -60 -80 0
-59 -69 -60 -70 0
-61 -71 -62 -72 0
-61 -81 -63 -83 0
-61 -91 -64 -94 0
-62 -72 -63 -73 0
-62 -82 -64 -84 0
-62 -92 -65 -95 0
-63 -73 -64 -74 0
-63 -83 -65 -85 0
-63 -93 -66 -96 0
-64 -74 -65 -75 0
-64 -84 -66 -86 0
-64 -94 -67 -97 0
-65 -75 -66 -76 0
-65 -85 -67 -87 0
-65 -95 -68 -98 0
-66 -76 -67 -77 0
-66 -86 -68 -88 0
-66 -96 -69 -99 0
-67 -77 -68 -78 0
-67 -87 -69 -89 0
-67 -97 -70 -100 0
-68 -78 -69 -79 0
-68 -88 -70 -90 0
-69 -79 -70 -80 0
-71 -81 -72 -82 0
-71 -91 -73 -93 0
-72 -82 -73 -83 0
-72 -92 -74 -94 0
-73 -83 -74 -84 0
-73 -93 -75 -95 0
-74 -84 -75 -85 0
-74 -94 -76 -96 0
-75 -85 -76 -86 0
-75 -95 -77 -97 0
-76 -86 -77 -87 0
-76 -96 -78 -98 0
-77 -87 -78 -88 0
-77 -97 -79 -99 0
-78 -88 -79 -89 0
-78 -98 -80 -100 0
-79 -89 -80 -90 0
-81 -91 -82 -92 0
-82 -92 -83 -93 0
-83 -93 -84 -94 0
-84 -94 -85 -95 0
-85 -95 -86 -96 0
-86 -96 -87 -97 0
-87 -97 -88 -98 0
-88 -98 -89 -99 0
-89 -99 -90 -100 0
k 62 1 2 3 4 5 6 7 8 9 10 11 12 13 14 15 16 17 18 19 20 21 22 23 24 25 26 27 28 29 30 31 32 33 34 35 36 37 38 39 40 41 42 43 44 45 46 47 48 49 50 51 52 53 54 55 56 57 58 59 60 61 62 63 64 65 66 67 68 69 70 71 72 73 74 75 76 77 78 79 80 81 82 83 84 85 86 87 88 89 90 91 92 93 94 95 96 97 98 99 100 0
